unsat
(forall ((A (_ BitVec 1))
         (B (_ BitVec 1))
         (C (_ BitVec 1))
         (D (_ BitVec 1))
         (E (_ BitVec 1))
         (F (_ BitVec 1))
         (G (_ BitVec 1))
         (H (_ BitVec 11))
         (I (_ BitVec 1))
         (J (_ BitVec 1))
         (K (_ BitVec 1))
         (L (_ BitVec 1))
         (M (_ BitVec 1))
         (N (_ BitVec 1))
         (O (_ BitVec 1))
         (P (_ BitVec 1))
         (Q (_ BitVec 1))
         (R (_ BitVec 11))
         (S (_ BitVec 1))
         (T (_ BitVec 12))
         (U (_ BitVec 1))
         (V (_ BitVec 11))
         (W (_ BitVec 11))
         (X (_ BitVec 1))
         (Y (_ BitVec 1))
         (Z (_ BitVec 1))
         (A1 (_ BitVec 1))
         (B1 (_ BitVec 32))
         (C1 (_ BitVec 1))
         (D1 (_ BitVec 1))
         (E1 (_ BitVec 1))
         (F1 (_ BitVec 12))
         (G1 (_ BitVec 1))
         (H1 (_ BitVec 1))
         (I1 (_ BitVec 1))
         (J1 (_ BitVec 12))
         (K1 (_ BitVec 12))
         (L1 (_ BitVec 12))
         (M1 (_ BitVec 3))
         (N1 (_ BitVec 3))
         (O1 (_ BitVec 12))
         (P1 (_ BitVec 1))
         (Q1 (_ BitVec 1))
         (R1 (_ BitVec 1))
         (S1 (_ BitVec 1))
         (T1 (_ BitVec 3))
         (U1 (_ BitVec 1))
         (V1 (_ BitVec 12))
         (W1 (_ BitVec 1))
         (X1 (_ BitVec 1))
         (Y1 (_ BitVec 1))
         (Z1 (_ BitVec 1))
         (A2 (_ BitVec 12))
         (B2 (_ BitVec 1))
         (C2 (_ BitVec 4))
         (D2 (_ BitVec 1))
         (E2 (_ BitVec 1))
         (F2 (_ BitVec 1))
         (G2 (_ BitVec 12))
         (H2 (_ BitVec 12))
         (I2 (_ BitVec 1))
         (J2 (_ BitVec 1))
         (K2 (_ BitVec 1))
         (L2 (_ BitVec 1))
         (M2 (_ BitVec 3))
         (N2 (_ BitVec 1))
         (O2 (_ BitVec 1))
         (P2 (_ BitVec 32))
         (Q2 (_ BitVec 11))
         (R2 (_ BitVec 3))
         (S2 (_ BitVec 32))
         (T2 (_ BitVec 1))
         (U2 (_ BitVec 1))
         (V2 (_ BitVec 1))
         (W2 (_ BitVec 1))
         (X2 (_ BitVec 3))
         (Y2 (_ BitVec 1))
         (Z2 (_ BitVec 1))
         (A3 (_ BitVec 1))
         (B3 (_ BitVec 1))
         (C3 (_ BitVec 1))
         (D3 (_ BitVec 1))
         (E3 (_ BitVec 11))
         (F3 (_ BitVec 1))
         (G3 (_ BitVec 1))
         (H3 (_ BitVec 11))
         (I3 (_ BitVec 12))
         (J3 (_ BitVec 1))
         (K3 (_ BitVec 1))
         (L3 (_ BitVec 4))
         (M3 (_ BitVec 1))
         (N3 (_ BitVec 1))
         (O3 (_ BitVec 12))
         (P3 (_ BitVec 1))
         (Q3 (_ BitVec 11))
         (R3 (_ BitVec 1))
         (S3 (_ BitVec 1))
         (T3 (_ BitVec 1))
         (U3 (_ BitVec 1))
         (V3 (_ BitVec 1))
         (W3 (_ BitVec 1))
         (X3 (_ BitVec 1))
         (Y3 (_ BitVec 1))
         (Z3 (_ BitVec 11))
         (A4 (_ BitVec 1))
         (B4 (_ BitVec 11))
         (C4 (_ BitVec 1))
         (D4 (_ BitVec 3))
         (E4 (_ BitVec 1))
         (F4 (_ BitVec 1))
         (G4 (_ BitVec 1))
         (H4 (_ BitVec 1))
         (I4 (_ BitVec 24))
         (J4 (_ BitVec 1))
         (K4 (_ BitVec 1))
         (L4 (_ BitVec 1))
         (M4 (_ BitVec 1))
         (N4 (_ BitVec 11))
         (O4 (_ BitVec 3))
         (P4 (_ BitVec 1))
         (Q4 (_ BitVec 1))
         (R4 (_ BitVec 12))
         (S4 (_ BitVec 1))
         (T4 (_ BitVec 1))
         (U4 (_ BitVec 1))
         (V4 (_ BitVec 1))
         (W4 (_ BitVec 12))
         (X4 (_ BitVec 1))
         (Y4 (_ BitVec 1))
         (Z4 (_ BitVec 1))
         (A5 (_ BitVec 1))
         (B5 (_ BitVec 24))
         (C5 (_ BitVec 1))
         (D5 (_ BitVec 1))
         (E5 (_ BitVec 1))
         (F5 (_ BitVec 1))
         (G5 (_ BitVec 1))
         (H5 (_ BitVec 1))
         (I5 (_ BitVec 12))
         (J5 (_ BitVec 1))
         (K5 (_ BitVec 1))
         (L5 (_ BitVec 1))
         (M5 (_ BitVec 11))
         (N5 (_ BitVec 1))
         (O5 (_ BitVec 1))
         (P5 (_ BitVec 1))
         (Q5 (_ BitVec 1))
         (R5 (_ BitVec 1))
         (S5 (_ BitVec 1))
         (T5 (_ BitVec 1))
         (U5 (_ BitVec 1))
         (V5 (_ BitVec 1))
         (W5 (_ BitVec 1))
         (X5 (_ BitVec 1))
         (Y5 (_ BitVec 1))
         (Z5 (_ BitVec 1))
         (A6 (_ BitVec 1))
         (B6 (_ BitVec 4))
         (C6 (_ BitVec 1))
         (D6 (_ BitVec 1))
         (E6 (_ BitVec 4))
         (F6 (_ BitVec 1))
         (G6 (_ BitVec 1))
         (H6 (_ BitVec 1))
         (I6 (_ BitVec 12))
         (J6 (_ BitVec 1))
         (K6 (_ BitVec 1))
         (L6 (_ BitVec 32))
         (M6 (_ BitVec 1))
         (N6 (_ BitVec 1))
         (O6 (_ BitVec 1))
         (P6 (_ BitVec 1))
         (Q6 (_ BitVec 24))
         (R6 (_ BitVec 12))
         (S6 (_ BitVec 1))
         (T6 (_ BitVec 11))
         (U6 (_ BitVec 1)))
  (! (let ((a!1 (ite (or (= X3 #b1) (= ((_ extract 2 2) T1) #b1))
                     #b00000000000
                     (bvadd #b00000000001 Q2)))
           (a!2 (ite (or (not (= P6 #b1)) (not (= A4 #b0))) Q2 Z3))
           (a!3 (ite (or (= X3 #b1) (= ((_ extract 2 2) X2) #b1))
                     #b00000000000
                     (bvadd #b00000000001 Z3)))
           (a!4 (not (= ((_ extract 2 2) (bvadd R2 O4)) #b1)))
           (a!5 (= ((_ extract 2 2) (bvadd (bvmul #b010 R2) O4)) #b1))
           (a!6 (= ((_ extract 2 2) (bvadd (bvmul #b011 R2) O4)) #b1))
           (a!7 (or (not (= ((_ extract 0 0) M1) #b1)) (= L #b1) (= T3 #b0)))
           (a!8 (bvule (ite (= ((_ extract 1 1) X2) #b1)
                            #b00000000000
                            (bvadd #b00000000010 Z3))
                       #b10100000000))
           (a!9 (bvule (ite (= ((_ extract 2 2) X2) #b1)
                            #b00000000000
                            (bvadd #b00000000001 Z3))
                       #b10100000000))
           (a!10 (bvule (ite (= ((_ extract 2 2) T1) #b1)
                             #b00000000000
                             (ite (= M6 #b1) (bvadd #b00000000001 Q2) Q2))
                        #b10100000000))
           (a!11 (ite (or (= X3 #b1) (= ((_ extract 2 2) T1) #b1))
                      #b00000000000
                      (ite (= M6 #b1) (bvadd #b00000000001 Q2) Q2)))
           (a!13 (bvadd #b00000000001
                        (ite (= ((_ extract 2 2) T1) #b1)
                             #b00000000000
                             (bvadd #b00000000001 Q2)))))
     (let ((a!12 (or (not (= F5 M6))
                     (and (not (= K4 #b0)) (not (= M6 #b0)))
                     (bvule a!11 #b10100000000)))
           (a!14 (bvule (ite (= ((_ extract 1 1) T1) #b1) #b00000000000 a!13)
                        #b10100000000)))
     (let ((a!15 (and (or (not (= H5 #b1)) (bvule a!1 #b10100000000))
                      (= S4 #b1)
                      (bvule (ite (= A4 #b0) Z3 Q2) #b10100000000)
                      (bvule a!2 #b10100000000)
                      (or (not (= A4 #b0)) (= T3 #b1))
                      (or (not ((_ bit2bool 10) Z3)) (= V3 #b0))
                      (or ((_ bit2bool 0) N3)
                          ((_ bit2bool 0) J2)
                          (not (= Z4 #b0))
                          ((_ bit2bool 0) B2))
                      (or (= T3 #b0) (= A5 O))
                      (or (not (= H5 #b0)) (not (= E #b1)) (not (= Z4 #b0)))
                      (or (not (= H5 #b0)) (not (= E #b1)) (not (= T3 #b1)))
                      (or ((_ bit2bool 0) X4) (not (= T3 #b1)) (= V3 #b1))
                      (or ((_ bit2bool 0) A5) (not (= N3 #b0)))
                      (or (= J #b0) (not ((_ bit2bool 10) Q2)))
                      (or (not (= K2 #b0))
                          (not (= Q2 a!2))
                          (not ((_ bit2bool 10) a!2)))
                      (bvule Q2 #b10100000000)
                      (or (not (= Z4 #b0)) (= A4 B2))
                      (or (not (= H5 #b1)) (not (= Y #b1)))
                      (bvule Z3 #b10100000000)
                      (or (not (= E1 #b0)) (bvule a!3 #b10100000000))
                      (or (not ((_ bit2bool 10) Z3)) (not (= H5 #b0)))
                      (or (= A5 #b0) (not (= T3 #b1)) a!4 (not a!5) (not a!6))
                      (or ((_ bit2bool 0) I2) (not (bvule #b10011111110 Z3)))
                      a!7
                      (or (= P3 #b0) (not (= T3 #b0)))
                      (or (not (= H5 #b1)) (not (= T3 #b0)))
                      (or (not (= E1 #b0)) a!8)
                      (or (= B2 #b1) (not ((_ bit2bool 0) A3)) a!9)
                      (or (not (= H5 #b1)) a!10)
                      a!12
                      (or (not (= K4 #b0)) (not (= H5 #b1)) a!14)
                      (or ((_ bit2bool 2) X2)
                          (not (= A3 #b1))
                          (bvule (bvadd #b00000000001 Z3) #b10100000000)))))
       (= (INV!slice!1 A
                       B
                       C
                       D
                       E
                       F
                       G
                       H
                       I
                       J
                       K
                       L
                       M
                       N
                       O
                       P
                       Q
                       R
                       S
                       T
                       U
                       V
                       W
                       X
                       Y
                       Z
                       A1
                       B1
                       C1
                       D1
                       E1
                       F1
                       G1
                       H1
                       I1
                       J1
                       K1
                       L1
                       M1
                       N1
                       O1
                       P1
                       Q1
                       R1
                       S1
                       T1
                       U1
                       V1
                       W1
                       X1
                       Y1
                       Z1
                       A2
                       B2
                       C2
                       D2
                       E2
                       F2
                       G2
                       H2
                       I2
                       J2
                       K2
                       L2
                       M2
                       N2
                       O2
                       P2
                       Q2
                       R2
                       S2
                       T2
                       U2
                       V2
                       W2
                       X2
                       Y2
                       Z2
                       A3
                       B3
                       C3
                       D3
                       E3
                       F3
                       G3
                       H3
                       I3
                       J3
                       K3
                       L3
                       M3
                       N3
                       O3
                       P3
                       Q3
                       R3
                       S3
                       T3
                       U3
                       V3
                       W3
                       X3
                       Y3
                       Z3
                       A4
                       B4
                       C4
                       D4
                       E4
                       F4
                       G4
                       H4
                       I4
                       J4
                       K4
                       L4
                       M4
                       N4
                       O4
                       P4
                       Q4
                       R4
                       S4
                       T4
                       U4
                       V4
                       W4
                       X4
                       Y4
                       Z4
                       A5
                       B5
                       C5
                       D5
                       E5
                       F5
                       G5
                       H5
                       I5
                       J5
                       K5
                       L5
                       M5
                       N5
                       O5
                       P5
                       Q5
                       R5
                       S5
                       T5
                       U5
                       V5
                       W5
                       X5
                       Y5
                       Z5
                       A6
                       B6
                       C6
                       D6
                       E6
                       F6
                       G6
                       H6
                       I6
                       J6
                       K6
                       L6
                       M6
                       N6
                       O6
                       P6
                       Q6
                       R6
                       S6
                       T6
                       U6)
          a!15))))
     :weight 0))
